<number of tasks>
50

<cycle time>
1000

<order strength>
0.595


<task times>
1 106
2 93
3 224
4 93
5 61
6 89
7 92
8 51
9 195
10 189
11 84
12 247
13 379
14 59
15 112
16 43
17 114
18 155
19 26
20 244
21 79
22 136
23 55
24 132
25 265
26 123
27 144
28 53
29 113
30 197
31 181
32 40
33 75
34 362
35 158
36 52
37 81
38 60
39 206
40 70
41 313
42 34
43 193
44 88
45 93
46 244
47 134
48 130
49 161
50 33

<precedence relations>
1,9
2,9
3,9
4,9
5,7
5,8
5,9
5,10
5,11
5,12
6,7
6,11
6,12
6,13
6,14
7,39
8,39
9,15
9,16
9,17
9,18
10,27
11,20
11,28
12,19
12,25
13,19
13,29
14,19
14,21
14,35
15,25
15,36
16,20
16,41
17,20
17,26
17,29
17,36
18,21
18,25
19,20
19,22
19,23
19,24
20,39
21,39
22,27
23,27
24,27
25,26
25,28
25,29
26,39
27,30
27,31
27,32
27,33
27,34
28,38
28,40
29,35
31,36
32,37
33,38
33,40
34,38
35,37
36,39
37,39
37,40
37,41
38,39
38,41
39,42
39,43
39,44
39,45
39,46
41,49
42,48
43,47
44,48
45,50
46,48
47,49
48,49
48,50

<end>
